TCS_Benchmarks/redos_fix/snort1_output_distinct_3032_3031_0_0.txt
((.|\n|\r)*)([^\n\r]*)
((.|\n|\r)*)([uU][dD][pP]:\/\/)([^\n\r]*)